SAT
-1 -100 -99 -98 -97 -96 95 -10 59 -4 -79 -2 -93 94 67 84 -50 65 75 -87 34 55 42 -82 -78 -72 -45 -43 25 32 44 -41 37 69 47 -17 8 73 46 92 30 7 63 18 -28 -29 -64 81 49 -85 -74 40 -71 -60 19 52 -16 89 51 20 -88 57 91 -70 -33 -48 9 -68 -38 53 -58 -12 31 61 35 -11 -14 22 -77 27 24 39 -62 -66 -76 3 -56 83 13 -80 5 -54 -36 6 -21 23 -15 86 -90 -26 0
